% From JaCoP's nonogramRepository/data145.nin
 rows = 20;
 row_rule_len = 5;
 row_rules = array2d(1..rows, 1..row_rule_len, 
[
 0,0,0,0,3,
 0,0,0,1,5,
 0,0,1,2,2,
 0,1,2,2,1,
 0,1,2,2,1,
 0,0,6,3,2,
 0,1,3,5,3,
 0,0,0,7,6,
 0,3,5,3,2,
 0,0,14,1,1,
 0,0,2,12,1,
 0,1,2,7,6,
 2,2,2,5,4,
 3,2,3,3,1,
 0,0,5,5,3,
 0,0,0,6,2,
 0,0,0,4,1,
 0,0,3,1,1,
 0,0,0,2,2,
 0,0,0,4,1
]);

 cols = 20;
 col_rule_len = 5;
 col_rules = array2d(1..cols, 1..col_rule_len, 
[
 0,0,0,1,2,
 0,0,0,1,5,
 0,0,1,2,2,
 0,1,2,2,1,
 0,1,2,2,1,
 0,0,5,3,2,
 0,1,3,5,2,
 0,0,0,7,5,
 0,0,3,5,7,
 0,0,0,15,1,
 0,2,11,1,1,
 2,2,7,2,2,
 2,2,2,5,4,
 3,2,3,3,1,
 0,0,5,5,3,
 0,0,0,6,2,
 0,0,0,2,3,
 0,0,2,1,2,
 0,0,0,3,2,
 0,0,0,5,1
]);

